data/mip_solutions/furman_sahinidis/reduced_transportation/15sp-tkm_cplex.sol
Elapsed time: 0.137651920319
Nodes explored: 120
Upper bound: 19.0
Lower bound: 19.0
y[0,0]=1
y[1,4]=1
y[2,1]=1
y[2,2]=1
y[2,4]=1
y[3,2]=1
y[4,4]=1
y[5,4]=1
y[6,0]=1
y[6,3]=1
y[6,4]=1
y[7,0]=1
y[7,4]=1
y[7,5]=1
y[8,5]=1
y[8,6]=1
y[9,0]=1
y[9,1]=1
y[9,3]=1
q[0,1,0,7]=10.6
q[0,2,0,3]=86.5
q[0,2,0,7]=40.7
q[0,3,0,3]=31.8
q[0,4,0,6]=100.7
q[0,5,0,6]=31.8
q[0,6,0,8]=21.2
q[0,7,0,7]=5.3
q[0,8,0,8]=47.7
q[0,9,0,9]=5.3
q[0,10,0,10]=53.0
q[0,10,3,11]=-9.09494701773e-13
q[0,11,0,11]=37.1
q[0,11,3,11]=-2.38742359215e-12
q[0,12,0,12]=58.3
q[0,12,0,13]=-4.9300734435e-13
q[0,13,0,13]=121.9
q[0,13,6,14]=-2.33058017329e-12
q[1,2,4,6]=403.2
q[1,3,4,6]=5.1
q[1,3,4,8]=95.7
q[1,4,4,6]=55.9
q[1,4,4,7]=263.3
q[1,5,4,6]=100.8
q[1,6,4,6]=67.2
q[1,7,4,7]=16.8
q[1,8,4,8]=151.2
q[2,3,1,3]=92.8
q[2,3,2,4]=2746.0
q[2,3,4,6]=488.2
q[3,4,2,4]=124.0
q[3,4,2,5]=1230.0
q[4,7,4,8]=134.6
q[4,8,4,8]=1211.4
q[5,8,4,8]=928.0
q[6,9,0,9]=51.3
q[6,9,0,11]=177.4
q[6,9,3,9]=18.4
q[6,9,3,10]=184.0
q[6,9,3,11]=128.8
q[6,9,4,9]=280.1
q[7,10,0,10]=513.0
q[7,10,0,11]=181.7
q[7,10,0,12]=564.3
q[7,10,0,13]=1179.9
q[7,10,4,10]=2801.0
q[7,10,5,11]=2198.0
q[7,10,5,12]=3454.0
q[7,10,5,13]=1108.1
q[8,13,5,13]=6113.9
q[8,13,6,14]=1338.1
q[9,0,0,2]=622.6
q[9,0,0,3]=221.3
q[9,0,0,4]=1075.4
q[9,0,0,5]=339.6
q[9,0,0,6]=93.9
q[9,0,0,8]=440.5
q[9,0,1,3]=447.7
q[9,0,1,4]=2053.9
q[9,0,3,4]=165.6
q[9,0,3,5]=110.4
q[9,0,3,6]=73.6
q[9,0,3,7]=18.4
q[9,0,3,8]=165.6
